\ENCODING=ISO-8859-1
\Problem name: ilog.cplex

Maximize
 obj: 2 x_ijk_0_0_0 + 2 x_ijk_0_0_1 + 2 x_ijk_0_0_2 + 2 x_ijk_0_0_3
      + 2 x_ijk_0_0_4 + 8 x_ijk_0_1_0 + 8 x_ijk_0_1_1 + 8 x_ijk_0_1_2
      + 8 x_ijk_0_1_3 + 8 x_ijk_0_1_4 + 11 x_ijk_0_2_0 + 11 x_ijk_0_2_1
      + 11 x_ijk_0_2_2 + 11 x_ijk_0_2_3 + 11 x_ijk_0_2_4 + 4 x_ijk_0_3_0
      + 4 x_ijk_0_3_1 + 4 x_ijk_0_3_2 + 4 x_ijk_0_3_3 + 4 x_ijk_0_3_4
      + 16 x_ijk_1_0_0 + 16 x_ijk_1_0_1 + 16 x_ijk_1_0_2 + 16 x_ijk_1_0_3
      + 16 x_ijk_1_0_4 + 19 x_ijk_1_1_0 + 19 x_ijk_1_1_1 + 19 x_ijk_1_1_2
      + 19 x_ijk_1_1_3 + 19 x_ijk_1_1_4
Subject To
 c1:  31 x_ijk_0_0_0 + 29 x_ijk_0_1_0 + 3 x_ijk_0_2_0 + 19 x_ijk_0_3_0
      + 9 x_ijk_1_0_0 + 39 x_ijk_1_1_0 - Rgc1  = -2147483647
 c2:  30 x_ijk_0_0_1 + 35 x_ijk_0_1_1 + 18 x_ijk_0_2_1 + 4 x_ijk_0_3_1
      + 3 x_ijk_1_0_1 + 15 x_ijk_1_1_1 - Rgc2  = -2147483647
 c3:  18 x_ijk_0_0_2 + 17 x_ijk_0_1_2 + 30 x_ijk_0_2_2 + 36 x_ijk_0_3_2
      + 11 x_ijk_1_0_2 + 14 x_ijk_1_1_2 - Rgc3  = -2147483647
 c4:  17 x_ijk_0_0_3 + 20 x_ijk_0_1_3 + 33 x_ijk_0_2_3 + 35 x_ijk_0_3_3
      + 3 x_ijk_1_0_3 + 40 x_ijk_1_1_3 - Rgc4  = -2147483647
 c5:  29 x_ijk_0_0_4 + 8 x_ijk_0_1_4 + 34 x_ijk_0_2_4 + 9 x_ijk_0_3_4
      + 8 x_ijk_1_0_4 + 18 x_ijk_1_1_4 - Rgc5  = -2147483647
 c6:  x_ijk_0_0_0 + x_ijk_0_1_0 + x_ijk_0_2_0 + x_ijk_0_3_0 - Rgc6
       = -2147483647
 c7:  x_ijk_0_0_1 + x_ijk_0_1_1 + x_ijk_0_2_1 + x_ijk_0_3_1 - Rgc7
       = -2147483647
 c8:  x_ijk_0_0_2 + x_ijk_0_1_2 + x_ijk_0_2_2 + x_ijk_0_3_2 - Rgc8
       = -2147483647
 c9:  x_ijk_0_0_3 + x_ijk_0_1_3 + x_ijk_0_2_3 + x_ijk_0_3_3 - Rgc9
       = -2147483647
 c10: x_ijk_0_0_4 + x_ijk_0_1_4 + x_ijk_0_2_4 + x_ijk_0_3_4 - Rgc10
       = -2147483647
 c11: x_ijk_1_0_0 + x_ijk_1_1_0 - Rgc11  = -2147483647
 c12: x_ijk_1_0_1 + x_ijk_1_1_1 - Rgc12  = -2147483647
 c13: x_ijk_1_0_2 + x_ijk_1_1_2 - Rgc13  = -2147483647
 c14: x_ijk_1_0_3 + x_ijk_1_1_3 - Rgc14  = -2147483647
 c15: x_ijk_1_0_4 + x_ijk_1_1_4 - Rgc15  = -2147483647
Bounds
 0 <= x_ijk_0_0_0 <= 1
 0 <= x_ijk_0_0_1 <= 1
 0 <= x_ijk_0_0_2 <= 1
 0 <= x_ijk_0_0_3 <= 1
 0 <= x_ijk_0_0_4 <= 1
 0 <= x_ijk_0_1_0 <= 1
 0 <= x_ijk_0_1_1 <= 1
 0 <= x_ijk_0_1_2 <= 1
 0 <= x_ijk_0_1_3 <= 1
 0 <= x_ijk_0_1_4 <= 1
 0 <= x_ijk_0_2_0 <= 1
 0 <= x_ijk_0_2_1 <= 1
 0 <= x_ijk_0_2_2 <= 1
 0 <= x_ijk_0_2_3 <= 1
 0 <= x_ijk_0_2_4 <= 1
 0 <= x_ijk_0_3_0 <= 1
 0 <= x_ijk_0_3_1 <= 1
 0 <= x_ijk_0_3_2 <= 1
 0 <= x_ijk_0_3_3 <= 1
 0 <= x_ijk_0_3_4 <= 1
 0 <= x_ijk_1_0_0 <= 1
 0 <= x_ijk_1_0_1 <= 1
 0 <= x_ijk_1_0_2 <= 1
 0 <= x_ijk_1_0_3 <= 1
 0 <= x_ijk_1_0_4 <= 1
 0 <= x_ijk_1_1_0 <= 1
 0 <= x_ijk_1_1_1 <= 1
 0 <= x_ijk_1_1_2 <= 1
 0 <= x_ijk_1_1_3 <= 1
 0 <= x_ijk_1_1_4 <= 1
 0 <= Rgc1 <= 2147483738
 0 <= Rgc2 <= 2147483720
 0 <= Rgc3 <= 2147483714
 0 <= Rgc4 <= 2147483713
 0 <= Rgc5 <= 2147483683
 0 <= Rgc6 <= 2147483648
 0 <= Rgc7 <= 2147483648
 0 <= Rgc8 <= 2147483648
 0 <= Rgc9 <= 2147483648
 0 <= Rgc10 <= 2147483648
 0 <= Rgc11 <= 2147483648
 0 <= Rgc12 <= 2147483648
 0 <= Rgc13 <= 2147483648
 0 <= Rgc14 <= 2147483648
 0 <= Rgc15 <= 2147483648
Generals
 x_ijk_0_0_0  x_ijk_0_0_1  x_ijk_0_0_2  x_ijk_0_0_3  x_ijk_0_0_4  x_ijk_0_1_0 
 x_ijk_0_1_1  x_ijk_0_1_2  x_ijk_0_1_3  x_ijk_0_1_4  x_ijk_0_2_0  x_ijk_0_2_1 
 x_ijk_0_2_2  x_ijk_0_2_3  x_ijk_0_2_4  x_ijk_0_3_0  x_ijk_0_3_1  x_ijk_0_3_2 
 x_ijk_0_3_3  x_ijk_0_3_4  x_ijk_1_0_0  x_ijk_1_0_1  x_ijk_1_0_2  x_ijk_1_0_3 
 x_ijk_1_0_4  x_ijk_1_1_0  x_ijk_1_1_1  x_ijk_1_1_2  x_ijk_1_1_3  x_ijk_1_1_4 
End
